Generated by toolkit@yao
1.00000000000000
13.000000	0.000000	0.000000
-6.500000	22.516661	0.000000
0.000000	0.000000	32.279998
H	Mo	O	S
448	64	224	128
D
0.289106	0.045789	0.216182
0.317973	0.069062	0.259880
0.069090	0.067602	0.243844
-0.007504	0.104775	0.260433
0.110904	0.292702	0.231952
0.213522	0.344713	0.228856
0.060626	0.442341	0.234166
0.104882	0.391472	0.253988
0.492619	0.100556	0.239138
0.575034	0.071180	0.220920
0.186992	0.158580	0.241403
0.230919	0.226776	0.235531
0.419513	0.309289	0.238634
0.474699	0.374982	0.233810
0.291609	0.462843	0.213414
0.415215	0.485688	0.222103
0.819281	0.091052	0.261988
0.858103	0.065493	0.226396
0.635452	0.179532	0.228482
0.703214	0.234814	0.251486
0.634525	0.342135	0.222423
0.659678	0.370911	0.262948
0.613811	0.457394	0.211896
0.603121	0.477299	0.256412
-0.178875	0.442512	0.223927
0.131644	-0.016217	0.260112
0.138876	0.116711	0.303849
0.260841	0.148131	0.314558
-0.019438	0.277403	0.315921
-0.010136	0.220048	0.298335
-0.156509	0.319406	0.290867
-0.076966	0.349388	0.323655
0.181807	0.476908	0.293922
0.389119	0.000919	0.333623
0.453557	0.219050	0.299037
0.478311	0.163566	0.329235
0.286388	0.331071	0.378631
0.404498	0.329726	0.391061
0.329630	0.436064	0.280773
0.379336	0.385455	0.275916
0.650215	0.040465	0.300246
0.760957	0.072606	0.319861
0.813287	0.213935	0.315988
0.726512	0.167225	0.299990
0.604790	0.312936	0.329592
0.694336	0.282861	0.341291
0.718676	0.474327	0.318484
0.600362	0.467016	0.332218
-0.267329	0.377152	0.353499
0.081129	-0.069837	0.367263
0.104600	0.156967	0.411350
0.149033	0.123208	0.377434
0.012385	0.226309	0.375181
-0.046190	0.191720	0.417230
-0.022559	0.346194	0.403287
0.067044	0.364118	0.366534
0.253359	-0.067544	0.368877
0.281033	-0.004603	0.384700
0.372687	0.183024	0.408717
0.443899	0.204330	0.368435
0.329147	0.380336	0.430323
0.302233	0.384711	0.476942
0.346746	0.499819	0.397776
0.274072	0.484190	0.357174
0.928762	0.146900	0.349883
0.913732	0.076811	0.349667
0.669488	0.190547	0.369534
0.702790	0.242155	0.400307
0.687909	0.233945	0.472436
0.692281	0.298443	0.461563
0.447319	0.456998	0.370175
0.784736	-0.049767	0.401583
0.091456	-0.071245	0.454719
-0.070867	0.401637	0.457207
0.000989	0.077098	0.413733
-0.126500	0.033459	0.414367
0.093222	0.273464	0.426879
0.174144	0.332109	0.433937
-0.116664	0.299430	0.461153
0.014074	0.319993	0.459049
0.369865	0.065758	0.428040
0.159694	0.510116	0.423143
0.208827	0.026264	0.459734
0.193552	0.085516	0.439941
0.533235	0.279643	0.418159
0.495319	0.277322	0.463696
0.124928	0.431252	0.469495
0.202839	0.437505	0.430486
0.713389	-0.050742	0.470637
0.579710	0.453833	0.460449
0.633432	0.091974	0.458710
0.693869	0.040019	0.465474
0.781286	0.196895	0.414317
0.764557	0.133749	0.433116
0.619052	0.373659	0.446089
0.692848	0.413048	0.416243
0.429999	0.335689	0.330824
0.519473	0.384561	0.347232
0.162706	0.048422	0.318042
0.170051	-0.014569	0.325895
0.517405	0.098230	0.381071
0.595691	0.108722	0.342531
0.160216	0.308425	0.325733
0.241188	0.371699	0.322516
0.294771	0.257862	0.439176
0.209792	0.235171	0.473949
0.550948	0.173525	0.439112
0.495184	0.130797	0.475318
-0.094133	0.236706	0.237079
-0.070058	0.181172	0.223791
0.414832	0.205882	0.242920
0.543107	0.236442	0.237090
0.289106	0.045789	0.716182
0.317973	0.069062	0.759880
0.069090	0.067602	0.743844
-0.007504	0.104775	0.760433
0.110904	0.292702	0.731952
0.213522	0.344713	0.728856
0.060626	0.442341	0.734166
0.104882	0.391472	0.753988
0.492619	0.100556	0.739138
0.575034	0.071180	0.720920
0.186992	0.158580	0.741403
0.230919	0.226776	0.735531
0.419513	0.309289	0.738634
0.474699	0.374982	0.733810
0.291609	0.462843	0.713414
0.415215	0.485688	0.722103
0.819281	0.091052	0.761988
0.858103	0.065493	0.726396
0.635452	0.179532	0.728482
0.703214	0.234814	0.751486
0.634525	0.342135	0.722423
0.659678	0.370911	0.762948
0.613811	0.457394	0.711896
0.603121	0.477299	0.756412
-0.178875	0.442512	0.723927
0.131644	-0.016217	0.760112
0.138876	0.116711	0.803849
0.260841	0.148131	0.814558
-0.019438	0.277403	0.815921
-0.010136	0.220048	0.798335
-0.156509	0.319406	0.790867
-0.076966	0.349388	0.823655
0.181807	0.476908	0.793922
0.389119	0.000919	0.833623
0.453557	0.219050	0.799037
0.478311	0.163566	0.829235
0.286388	0.331071	0.878631
0.404498	0.329726	0.891061
0.329630	0.436064	0.780773
0.379336	0.385455	0.775916
0.650215	0.040465	0.800246
0.760957	0.072606	0.819861
0.813287	0.213935	0.815988
0.726512	0.167225	0.799990
0.604790	0.312936	0.829592
0.694336	0.282861	0.841291
0.718676	0.474327	0.818484
0.600362	0.467016	0.832218
-0.267329	0.377152	0.853499
0.081129	-0.069837	0.867263
0.104600	0.156967	0.911350
0.149033	0.123208	0.877434
0.012385	0.226309	0.875181
-0.046190	0.191720	0.917230
-0.022559	0.346194	0.903287
0.067044	0.364118	0.866534
0.253359	-0.067544	0.868877
0.281033	-0.004603	0.884700
0.372687	0.183024	0.908717
0.443899	0.204330	0.868435
0.329147	0.380336	0.930323
0.302233	0.384711	0.976942
0.346746	0.499819	0.897776
0.274072	0.484190	0.857174
0.928762	0.146900	0.849883
0.913732	0.076811	0.849667
0.669488	0.190547	0.869534
0.702790	0.242155	0.900307
0.687909	0.233945	0.972436
0.692281	0.298443	0.961563
0.447319	0.456998	0.870175
0.784736	-0.049767	0.901583
0.091456	-0.071245	0.954719
-0.070867	0.401637	0.957207
0.000989	0.077098	0.913733
-0.126500	0.033459	0.914367
0.093222	0.273464	0.926879
0.174144	0.332109	0.933937
-0.116664	0.299430	0.961153
0.014074	0.319993	0.959049
0.369865	0.065758	0.928040
0.159694	0.510116	0.923143
0.208827	0.026264	0.959734
0.193552	0.085516	0.939941
0.533235	0.279643	0.918159
0.495319	0.277322	0.963696
0.124928	0.431252	0.969495
0.202839	0.437505	0.930486
0.713389	-0.050742	0.970637
0.579710	0.453833	0.960449
0.633432	0.091974	0.958710
0.693869	0.040019	0.965474
0.781286	0.196895	0.914317
0.764557	0.133749	0.933116
0.619052	0.373659	0.946089
0.692848	0.413048	0.916243
0.429999	0.335689	0.830824
0.519473	0.384561	0.847232
0.162706	0.048422	0.818042
0.170051	-0.014569	0.825895
0.517405	0.098230	0.881071
0.595691	0.108722	0.842531
0.160216	0.308425	0.825733
0.241188	0.371699	0.822516
0.294771	0.257862	0.939176
0.209792	0.235171	0.973949
0.550948	0.173525	0.939112
0.495184	0.130797	0.975318
-0.094133	0.236706	0.737079
-0.070058	0.181172	0.723791
0.414832	0.205882	0.742920
0.543107	0.236442	0.737090
0.039106	0.545789	0.216182
0.067973	0.569062	0.259880
-0.180910	0.567602	0.243844
-0.257504	0.604775	0.260433
-0.139096	0.792702	0.231952
-0.036478	0.844713	0.228856
-0.189374	0.942341	0.234166
-0.145118	0.891472	0.253988
0.242619	0.600556	0.239138
0.325034	0.571180	0.220920
-0.063008	0.658580	0.241403
-0.019081	0.726776	0.235531
0.169513	0.809289	0.238634
0.224699	0.874982	0.233810
0.041609	0.962843	0.213414
0.165215	0.985688	0.222103
0.569281	0.591052	0.261988
0.608103	0.565493	0.226396
0.385452	0.679532	0.228482
0.453214	0.734814	0.251486
0.384525	0.842135	0.222423
0.409678	0.870911	0.262948
0.363811	0.957394	0.211896
0.353121	0.977299	0.256412
-0.428875	0.942512	0.223927
-0.118356	0.483783	0.260112
-0.111124	0.616711	0.303849
0.010841	0.648131	0.314558
-0.269438	0.777403	0.315921
-0.260136	0.720048	0.298335
-0.406509	0.819406	0.290867
-0.326966	0.849388	0.323655
-0.068193	0.976908	0.293922
0.139119	0.500919	0.333623
0.203557	0.719050	0.299037
0.228311	0.663566	0.329235
0.036388	0.831071	0.378631
0.154498	0.829726	0.391061
0.079630	0.936064	0.280773
0.129336	0.885455	0.275916
0.400215	0.540465	0.300246
0.510957	0.572606	0.319861
0.563287	0.713935	0.315988
0.476512	0.667225	0.299990
0.354790	0.812936	0.329592
0.444336	0.782861	0.341291
0.468676	0.974327	0.318484
0.350362	0.967016	0.332218
-0.517329	0.877152	0.353499
-0.168871	0.430163	0.367263
-0.145400	0.656967	0.411350
-0.100967	0.623208	0.377434
-0.237615	0.726309	0.375181
-0.296190	0.691720	0.417230
-0.272559	0.846194	0.403287
-0.182956	0.864118	0.366534
0.003359	0.432456	0.368877
0.031033	0.495397	0.384700
0.122687	0.683024	0.408717
0.193899	0.704330	0.368435
0.079147	0.880336	0.430323
0.052233	0.884711	0.476942
0.096746	0.999819	0.397776
0.024072	0.984190	0.357174
0.678762	0.646900	0.349883
0.663732	0.576811	0.349667
0.419488	0.690547	0.369534
0.452790	0.742155	0.400307
0.437909	0.733945	0.472436
0.442281	0.798443	0.461563
0.197319	0.956998	0.370175
0.534736	0.450233	0.401583
-0.158544	0.428755	0.454719
-0.320867	0.901637	0.457207
-0.249011	0.577098	0.413733
-0.376500	0.533459	0.414367
-0.156778	0.773464	0.426879
-0.075856	0.832109	0.433937
-0.366664	0.799430	0.461153
-0.235926	0.819993	0.459049
0.119865	0.565758	0.428040
-0.090306	1.010116	0.423143
-0.041173	0.526264	0.459734
-0.056448	0.585516	0.439941
0.283235	0.779643	0.418159
0.245319	0.777322	0.463696
-0.125072	0.931252	0.469495
-0.047161	0.937505	0.430486
0.463389	0.449258	0.470637
0.329710	0.953833	0.460449
0.383432	0.591974	0.458710
0.443869	0.540019	0.465474
0.531286	0.696895	0.414317
0.514557	0.633749	0.433116
0.369052	0.873659	0.446089
0.442848	0.913048	0.416243
0.179999	0.835689	0.330824
0.269473	0.884561	0.347232
-0.087294	0.548422	0.318042
-0.079949	0.485431	0.325895
0.267405	0.598230	0.381071
0.345691	0.608722	0.342531
-0.089784	0.808425	0.325733
-0.008812	0.871699	0.322516
0.044771	0.757862	0.439176
-0.040208	0.735171	0.473949
0.300948	0.673525	0.439112
0.245184	0.630797	0.475318
-0.344133	0.736706	0.237079
-0.320058	0.681172	0.223791
0.164832	0.705882	0.242920
0.293107	0.736442	0.237090
0.039106	0.545789	0.716182
0.067973	0.569062	0.759880
-0.180910	0.567602	0.743844
-0.257504	0.604775	0.760433
-0.139096	0.792702	0.731952
-0.036478	0.844713	0.728856
-0.189374	0.942341	0.734166
-0.145118	0.891472	0.753988
0.242619	0.600556	0.739138
0.325034	0.571180	0.720920
-0.063008	0.658580	0.741403
-0.019081	0.726776	0.735531
0.169513	0.809289	0.738634
0.224699	0.874982	0.733810
0.041609	0.962843	0.713414
0.165215	0.985688	0.722103
0.569281	0.591052	0.761988
0.608103	0.565493	0.726396
0.385452	0.679532	0.728482
0.453214	0.734814	0.751486
0.384525	0.842135	0.722423
0.409678	0.870911	0.762948
0.363811	0.957394	0.711896
0.353121	0.977299	0.756412
-0.428875	0.942512	0.723927
-0.118356	0.483783	0.760112
-0.111124	0.616711	0.803849
0.010841	0.648131	0.814558
-0.269438	0.777403	0.815921
-0.260136	0.720048	0.798335
-0.406509	0.819406	0.790867
-0.326966	0.849388	0.823655
-0.068193	0.976908	0.793922
0.139119	0.500919	0.833623
0.203557	0.719050	0.799037
0.228311	0.663566	0.829235
0.036388	0.831071	0.878631
0.154498	0.829726	0.891061
0.079630	0.936064	0.780773
0.129336	0.885455	0.775916
0.400215	0.540465	0.800246
0.510957	0.572606	0.819861
0.563287	0.713935	0.815988
0.476512	0.667225	0.799990
0.354790	0.812936	0.829592
0.444336	0.782861	0.841291
0.468676	0.974327	0.818484
0.350362	0.967016	0.832218
-0.517329	0.877152	0.853499
-0.168871	0.430163	0.867263
-0.145400	0.656967	0.911350
-0.100967	0.623208	0.877434
-0.237615	0.726309	0.875181
-0.296190	0.691720	0.917230
-0.272559	0.846194	0.903287
-0.182956	0.864118	0.866534
0.003359	0.432456	0.868877
0.031033	0.495397	0.884700
0.122687	0.683024	0.908717
0.193899	0.704330	0.868435
0.079147	0.880336	0.930323
0.052233	0.884711	0.976942
0.096746	0.999819	0.897776
0.024072	0.984190	0.857174
0.678762	0.646900	0.849883
0.663732	0.576811	0.849667
0.419488	0.690547	0.869534
0.452790	0.742155	0.900307
0.437909	0.733945	0.972436
0.442281	0.798443	0.961563
0.197319	0.956998	0.870175
0.534736	0.450233	0.901583
-0.158544	0.428755	0.954719
-0.320867	0.901637	0.957207
-0.249011	0.577098	0.913733
-0.376500	0.533459	0.914367
-0.156778	0.773464	0.926879
-0.075856	0.832109	0.933937
-0.366664	0.799430	0.961153
-0.235926	0.819993	0.959049
0.119865	0.565758	0.928040
-0.090306	1.010116	0.923143
-0.041173	0.526264	0.959734
-0.056448	0.585516	0.939941
0.283235	0.779643	0.918159
0.245319	0.777322	0.963696
-0.125072	0.931252	0.969495
-0.047161	0.937505	0.930486
0.463389	0.449258	0.970637
0.329710	0.953833	0.960449
0.383432	0.591974	0.958710
0.443869	0.540019	0.965474
0.531286	0.696895	0.914317
0.514557	0.633749	0.933116
0.369052	0.873659	0.946089
0.442848	0.913048	0.916243
0.179999	0.835689	0.830824
0.269473	0.884561	0.847232
-0.087294	0.548422	0.818042
-0.079949	0.485431	0.825895
0.267405	0.598230	0.881071
0.345691	0.608722	0.842531
-0.089784	0.808425	0.825733
-0.008812	0.871699	0.822516
0.044771	0.757862	0.939176
-0.040208	0.735171	0.973949
0.300948	0.673525	0.939112
0.245184	0.630797	0.975318
-0.344133	0.736706	0.737079
-0.320058	0.681172	0.723791
0.164832	0.705882	0.742920
0.293107	0.736442	0.737090
0.093750	0.062500	0.095106
0.343750	0.062500	0.095106
0.593750	0.062500	0.095106
0.843750	0.062500	0.095106
0.031250	0.187500	0.095106
0.281250	0.187500	0.095106
0.531250	0.187500	0.095106
0.781250	0.187500	0.095106
-0.031250	0.312500	0.095106
0.218750	0.312500	0.095106
0.468750	0.312500	0.095106
0.718750	0.312500	0.095106
-0.093750	0.437500	0.095106
0.156250	0.437500	0.095106
0.406250	0.437500	0.095106
0.656250	0.437500	0.095106
0.093750	0.062500	0.595106
0.343750	0.062500	0.595106
0.593750	0.062500	0.595106
0.843750	0.062500	0.595106
0.031250	0.187500	0.595106
0.281250	0.187500	0.595106
0.531250	0.187500	0.595106
0.781250	0.187500	0.595106
-0.031250	0.312500	0.595106
0.218750	0.312500	0.595106
0.468750	0.312500	0.595106
0.718750	0.312500	0.595106
-0.093750	0.437500	0.595106
0.156250	0.437500	0.595106
0.406250	0.437500	0.595106
0.656250	0.437500	0.595106
-0.156250	0.562500	0.095106
0.093750	0.562500	0.095106
0.343750	0.562500	0.095106
0.593750	0.562500	0.095106
-0.218750	0.687500	0.095106
0.031250	0.687500	0.095106
0.281250	0.687500	0.095106
0.531250	0.687500	0.095106
-0.281250	0.812500	0.095106
-0.031250	0.812500	0.095106
0.218750	0.812500	0.095106
0.468750	0.812500	0.095106
-0.343750	0.937500	0.095106
-0.093750	0.937500	0.095106
0.156250	0.937500	0.095106
0.406250	0.937500	0.095106
-0.156250	0.562500	0.595106
0.093750	0.562500	0.595106
0.343750	0.562500	0.595106
0.593750	0.562500	0.595106
-0.218750	0.687500	0.595106
0.031250	0.687500	0.595106
0.281250	0.687500	0.595106
0.531250	0.687500	0.595106
-0.281250	0.812500	0.595106
-0.031250	0.812500	0.595106
0.218750	0.812500	0.595106
0.468750	0.812500	0.595106
-0.343750	0.937500	0.595106
-0.093750	0.937500	0.595106
0.156250	0.937500	0.595106
0.406250	0.937500	0.595106
0.344715	0.075900	0.231884
0.066147	0.102253	0.260734
0.154768	0.323760	0.248707
0.099555	0.433241	0.258059
0.568331	0.109315	0.230887
0.252231	0.189494	0.231707
0.404248	0.347851	0.235102
0.346728	0.484199	0.232624
0.863419	0.104211	0.238575
0.658723	0.222983	0.225857
0.664851	0.380267	0.233396
0.579767	0.482610	0.227334
-0.131799	0.482407	0.229786
0.194701	0.122047	0.326067
0.009909	0.243450	0.324556
-0.077190	0.333387	0.296455
0.205159	0.501479	0.318644
0.432181	0.187907	0.320638
0.335799	0.328402	0.401665
0.342457	0.404125	0.297118
0.686925	0.076374	0.313481
0.776254	0.201840	0.289500
0.677932	0.314572	0.323507
0.650011	0.477121	0.309567
-0.243179	0.409714	0.374828
0.150091	0.131289	0.406987
0.027883	0.208282	0.403707
-0.007054	0.358905	0.375177
0.253183	-0.027009	0.358601
0.446505	0.201240	0.399395
0.315739	0.408247	0.452604
0.317405	0.467924	0.377956
0.913378	0.113856	0.330894
0.727749	0.226952	0.374073
0.731565	0.268815	0.458662
0.752793	-0.063272	0.375056
0.168592	-0.056829	0.459703
-0.059700	0.052018	0.398435
0.125918	0.302704	0.449102
-0.053734	0.332134	0.455961
0.415327	0.051025	0.410848
0.244391	0.070264	0.456730
0.543786	0.303013	0.443751
0.132183	0.442687	0.440005
0.777896	-0.021119	0.461949
0.665232	0.062323	0.444785
0.819781	0.171652	0.430516
0.665066	0.414374	0.445829
0.499478	0.341788	0.343719
0.124800	0.005559	0.309622
0.562386	0.131264	0.361940
0.185656	0.345349	0.341656
0.277136	0.228508	0.462380
0.566932	0.153831	0.465216
-0.029380	0.222388	0.231892
0.473463	0.243576	0.246715
0.344715	0.075900	0.731884
0.066147	0.102253	0.760734
0.154768	0.323760	0.748707
0.099555	0.433241	0.758059
0.568331	0.109315	0.730887
0.252231	0.189494	0.731707
0.404248	0.347851	0.735102
0.346728	0.484199	0.732624
0.863419	0.104211	0.738575
0.658723	0.222983	0.725857
0.664851	0.380267	0.733396
0.579767	0.482610	0.727334
-0.131799	0.482407	0.729786
0.194701	0.122047	0.826067
0.009909	0.243450	0.824556
-0.077190	0.333387	0.796455
0.205159	0.501479	0.818644
0.432181	0.187907	0.820638
0.335799	0.328402	0.901665
0.342457	0.404125	0.797118
0.686925	0.076374	0.813481
0.776254	0.201840	0.789500
0.677932	0.314572	0.823507
0.650011	0.477121	0.809567
-0.243179	0.409714	0.874828
0.150091	0.131289	0.906987
0.027883	0.208282	0.903707
-0.007054	0.358905	0.875177
0.253183	-0.027009	0.858601
0.446505	0.201240	0.899395
0.315739	0.408247	0.952604
0.317405	0.467924	0.877956
0.913378	0.113856	0.830894
0.727749	0.226952	0.874073
0.731565	0.268815	0.958662
0.752793	-0.063272	0.875056
0.168592	-0.056829	0.959703
-0.059700	0.052018	0.898435
0.125918	0.302704	0.949102
-0.053734	0.332134	0.955961
0.415327	0.051025	0.910848
0.244391	0.070264	0.956730
0.543786	0.303013	0.943751
0.132183	0.442687	0.940005
0.777896	-0.021119	0.961949
0.665232	0.062323	0.944785
0.819781	0.171652	0.930516
0.665066	0.414374	0.945829
0.499478	0.341788	0.843719
0.124800	0.005559	0.809622
0.562386	0.131264	0.861940
0.185656	0.345349	0.841656
0.277136	0.228508	0.962380
0.566932	0.153831	0.965216
-0.029380	0.222388	0.731892
0.473463	0.243576	0.746715
0.094715	0.575900	0.231884
-0.183853	0.602253	0.260734
-0.095232	0.823760	0.248707
-0.150445	0.933241	0.258059
0.318331	0.609315	0.230887
0.002231	0.689494	0.231707
0.154248	0.847851	0.235102
0.096728	0.984199	0.232624
0.613419	0.604211	0.238575
0.408723	0.722983	0.225857
0.414851	0.880267	0.233396
0.329767	0.982610	0.227334
-0.381799	0.982407	0.229786
-0.055299	0.622047	0.326067
-0.240091	0.743450	0.324556
-0.327190	0.833387	0.296455
-0.044841	1.001479	0.318644
0.182181	0.687907	0.320638
0.085799	0.828402	0.401665
0.092457	0.904125	0.297118
0.436925	0.576374	0.313481
0.526254	0.701840	0.289500
0.427932	0.814572	0.323507
0.400011	0.977121	0.309567
-0.493179	0.909714	0.374828
-0.099909	0.631289	0.406987
-0.222117	0.708282	0.403707
-0.257054	0.858905	0.375177
0.003183	0.472991	0.358601
0.196505	0.701240	0.399395
0.065739	0.908247	0.452604
0.067405	0.967924	0.377956
0.663378	0.613856	0.330894
0.477749	0.726952	0.374073
0.481565	0.768815	0.458662
0.502793	0.436728	0.375056
-0.081408	0.443171	0.459703
-0.309700	0.552018	0.398435
-0.124082	0.802704	0.449102
-0.303734	0.832134	0.455961
0.165327	0.551025	0.410848
-0.005609	0.570264	0.456730
0.293786	0.803013	0.443751
-0.117817	0.942687	0.440005
0.527896	0.478881	0.461949
0.415232	0.562323	0.444785
0.569781	0.671652	0.430516
0.415066	0.914374	0.445829
0.249478	0.841788	0.343719
-0.125200	0.505559	0.309622
0.312386	0.631264	0.361940
-0.064344	0.845349	0.341656
0.027136	0.728508	0.462380
0.316932	0.653831	0.465216
-0.279380	0.722388	0.231892
0.223463	0.743576	0.246715
0.094715	0.575900	0.731884
-0.183853	0.602253	0.760734
-0.095232	0.823760	0.748707
-0.150445	0.933241	0.758059
0.318331	0.609315	0.730887
0.002231	0.689494	0.731707
0.154248	0.847851	0.735102
0.096728	0.984199	0.732624
0.613419	0.604211	0.738575
0.408723	0.722983	0.725857
0.414851	0.880267	0.733396
0.329767	0.982610	0.727334
-0.381799	0.982407	0.729786
-0.055299	0.622047	0.826067
-0.240091	0.743450	0.824556
-0.327190	0.833387	0.796455
-0.044841	1.001479	0.818644
0.182181	0.687907	0.820638
0.085799	0.828402	0.901665
0.092457	0.904125	0.797118
0.436925	0.576374	0.813481
0.526254	0.701840	0.789500
0.427932	0.814572	0.823507
0.400011	0.977121	0.809567
-0.493179	0.909714	0.874828
-0.099909	0.631289	0.906987
-0.222117	0.708282	0.903707
-0.257054	0.858905	0.875177
0.003183	0.472991	0.858601
0.196505	0.701240	0.899395
0.065739	0.908247	0.952604
0.067405	0.967924	0.877956
0.663378	0.613856	0.830894
0.477749	0.726952	0.874073
0.481565	0.768815	0.958662
0.502793	0.436728	0.875056
-0.081408	0.443171	0.959703
-0.309700	0.552018	0.898435
-0.124082	0.802704	0.949102
-0.303734	0.832134	0.955961
0.165327	0.551025	0.910848
-0.005609	0.570264	0.956730
0.293786	0.803013	0.943751
-0.117817	0.942687	0.940005
0.527896	0.478881	0.961949
0.415232	0.562323	0.944785
0.569781	0.671652	0.930516
0.415066	0.914374	0.945829
0.249478	0.841788	0.843719
-0.125200	0.505559	0.809622
0.312386	0.631264	0.861940
-0.064344	0.845349	0.841656
0.027136	0.728508	0.962380
0.316932	0.653831	0.965216
-0.279380	0.722388	0.731892
0.223463	0.743576	0.746715
0.239584	0.104167	0.046885
0.489585	0.104167	0.046885
0.739585	0.104167	0.046885
-0.010416	0.104167	0.046885
0.177085	0.229167	0.046885
0.427085	0.229167	0.046885
0.677085	0.229167	0.046885
-0.072915	0.229167	0.046885
0.114584	0.354166	0.046885
0.364585	0.354166	0.046885
0.614584	0.354166	0.046885
-0.135416	0.354166	0.046885
0.052084	0.479166	0.046885
0.302085	0.479166	0.046885
0.552085	0.479166	0.046885
-0.197916	0.479166	0.046885
0.135416	0.145834	0.143326
0.385416	0.145834	0.143326
0.635416	0.145834	0.143326
0.885416	0.145834	0.143326
0.072915	0.270834	0.143326
0.322916	0.270834	0.143326
0.572916	0.270834	0.143326
0.822916	0.270834	0.143326
0.010416	0.395834	0.143326
0.260416	0.395834	0.143326
0.510415	0.395834	0.143326
0.760415	0.395834	0.143326
0.197916	0.020834	0.143326
0.447916	0.020834	0.143326
0.697915	0.020834	0.143326
0.947915	0.020834	0.143326
0.239584	0.104167	0.546885
0.489585	0.104167	0.546885
0.739585	0.104167	0.546885
-0.010416	0.104167	0.546885
0.177085	0.229167	0.546885
0.427085	0.229167	0.546885
0.677085	0.229167	0.546885
-0.072915	0.229167	0.546885
0.114584	0.354166	0.546885
0.364585	0.354166	0.546885
0.614584	0.354166	0.546885
-0.135416	0.354166	0.546885
0.052084	0.479166	0.546885
0.302085	0.479166	0.546885
0.552085	0.479166	0.546885
-0.197916	0.479166	0.546885
0.135416	0.145834	0.643326
0.385416	0.145834	0.643326
0.635416	0.145834	0.643326
0.885416	0.145834	0.643326
0.072915	0.270834	0.643326
0.322916	0.270834	0.643326
0.572916	0.270834	0.643326
0.822916	0.270834	0.643326
0.010416	0.395834	0.643326
0.260416	0.395834	0.643326
0.510415	0.395834	0.643326
0.760415	0.395834	0.643326
0.197916	0.020834	0.643326
0.447916	0.020834	0.643326
0.697915	0.020834	0.643326
0.947915	0.020834	0.643326
-0.010416	0.604167	0.046885
0.239585	0.604167	0.046885
0.489585	0.604167	0.046885
-0.260416	0.604167	0.046885
-0.072915	0.729167	0.046885
0.177085	0.729167	0.046885
0.427085	0.729167	0.046885
-0.322915	0.729167	0.046885
-0.135416	0.854166	0.046885
0.114585	0.854166	0.046885
0.364584	0.854166	0.046885
-0.385416	0.854166	0.046885
-0.197916	0.979166	0.046885
0.052085	0.979166	0.046885
0.302085	0.979166	0.046885
-0.447916	0.979166	0.046885
-0.114584	0.645834	0.143326
0.135416	0.645834	0.143326
0.385416	0.645834	0.143326
0.635416	0.645834	0.143326
-0.177085	0.770834	0.143326
0.072916	0.770834	0.143326
0.322916	0.770834	0.143326
0.572916	0.770834	0.143326
-0.239584	0.895834	0.143326
0.010416	0.895834	0.143326
0.260415	0.895834	0.143326
0.510415	0.895834	0.143326
-0.052084	0.520834	0.143326
0.197916	0.520834	0.143326
0.447915	0.520834	0.143326
0.697915	0.520834	0.143326
-0.010416	0.604167	0.546885
0.239585	0.604167	0.546885
0.489585	0.604167	0.546885
-0.260416	0.604167	0.546885
-0.072915	0.729167	0.546885
0.177085	0.729167	0.546885
0.427085	0.729167	0.546885
-0.322915	0.729167	0.546885
-0.135416	0.854166	0.546885
0.114585	0.854166	0.546885
0.364584	0.854166	0.546885
-0.385416	0.854166	0.546885
-0.197916	0.979166	0.546885
0.052085	0.979166	0.546885
0.302085	0.979166	0.546885
-0.447916	0.979166	0.546885
-0.114584	0.645834	0.643326
0.135416	0.645834	0.643326
0.385416	0.645834	0.643326
0.635416	0.645834	0.643326
-0.177085	0.770834	0.643326
0.072916	0.770834	0.643326
0.322916	0.770834	0.643326
0.572916	0.770834	0.643326
-0.239584	0.895834	0.643326
0.010416	0.895834	0.643326
0.260415	0.895834	0.643326
0.510415	0.895834	0.643326
-0.052084	0.520834	0.643326
0.197916	0.520834	0.643326
0.447915	0.520834	0.643326
0.697915	0.520834	0.643326